c description: Perfect Matching Principle on 
c generator: CNFgen (0.9.0)
c copyright: (C) 2012-2020 Massimo Lauria <massimo.lauria@uniroma1.it>
c url: https://massimolauria.net/cnfgen
c
p cnf 60 248
-1 -2 0
-1 -3 0
-1 -4 0
-1 -5 0
-2 -3 0
-2 -4 0
-2 -5 0
-3 -4 0
-3 -5 0
-4 -5 0
1 2 3 4 5 0
-6 -7 0
-6 -8 0
-6 -9 0
-6 -10 0
-7 -8 0
-7 -9 0
-7 -10 0
-8 -9 0
-8 -10 0
-9 -10 0
6 7 8 9 10 0
-11 -12 0
-11 -13 0
-11 -14 0
-11 -15 0
-12 -13 0
-12 -14 0
-12 -15 0
-13 -14 0
-13 -15 0
-14 -15 0
11 12 13 14 15 0
-16 -17 0
-16 -18 0
-16 -19 0
-17 -18 0
-17 -19 0
-18 -19 0
16 17 18 19 0
-6 -11 0
-6 -16 0
-6 -20 0
-11 -16 0
-11 -20 0
-16 -20 0
6 11 16 20 0
-7 -21 0
-7 -22 0
-7 -23 0
-21 -22 0
-21 -23 0
-22 -23 0
7 21 22 23 0
-1 -8 0
-1 -12 0
-1 -24 0
-1 -25 0
-1 -26 0
-1 -27 0
-8 -12 0
-8 -24 0
-8 -25 0
-8 -26 0
-8 -27 0
-12 -24 0
-12 -25 0
-12 -26 0
-12 -27 0
-24 -25 0
-24 -26 0
-24 -27 0
-25 -26 0
-25 -27 0
-26 -27 0
1 8 12 24 25 26 27 0
28 0
-29 -30 0
29 30 0
-9 -31 0
-9 -32 0
-9 -33 0
-31 -32 0
-31 -33 0
-32 -33 0
9 31 32 33 0
-31 -34 0
-31 -35 0
-31 -36 0
-31 -37 0
-34 -35 0
-34 -36 0
-34 -37 0
-35 -36 0
-35 -37 0
-36 -37 0
31 34 35 36 37 0
-20 -24 0
-20 -38 0
-24 -38 0
20 24 38 0
-25 -34 0
-25 -39 0
-25 -40 0
-25 -41 0
-25 -42 0
-34 -39 0
-34 -40 0
-34 -41 0
-34 -42 0
-39 -40 0
-39 -41 0
-39 -42 0
-40 -41 0
-40 -42 0
-41 -42 0
25 34 39 40 41 42 0
-29 -35 0
-29 -39 0
-29 -43 0
-35 -39 0
-35 -43 0
-39 -43 0
29 35 39 43 0
-21 -44 0
-21 -45 0
-21 -46 0
-44 -45 0
-44 -46 0
-45 -46 0
21 44 45 46 0
-13 -47 0
-13 -48 0
-47 -48 0
13 47 48 0
-22 -49 0
22 49 0
-2 -40 0
-2 -43 0
-2 -50 0
-40 -43 0
-40 -50 0
-43 -50 0
2 40 43 50 0
-14 -23 0
-14 -36 0
-14 -51 0
-14 -52 0
-23 -36 0
-23 -51 0
-23 -52 0
-36 -51 0
-36 -52 0
-51 -52 0
14 23 36 51 52 0
53 0
-10 -28 0
-10 -44 0
-10 -51 0
-10 -54 0
-28 -44 0
-28 -51 0
-28 -54 0
-44 -51 0
-44 -54 0
-51 -54 0
10 28 44 51 54 0
-15 -47 0
-15 -54 0
-47 -54 0
15 47 54 0
-17 -53 0
17 53 0
-45 -55 0
-45 -56 0
-55 -56 0
45 55 56 0
-3 -18 0
-3 -26 0
-3 -41 0
-3 -49 0
-3 -55 0
-3 -57 0
-3 -58 0
-18 -26 0
-18 -41 0
-18 -49 0
-18 -55 0
-18 -57 0
-18 -58 0
-26 -41 0
-26 -49 0
-26 -55 0
-26 -57 0
-26 -58 0
-41 -49 0
-41 -55 0
-41 -57 0
-41 -58 0
-49 -55 0
-49 -57 0
-49 -58 0
-55 -57 0
-55 -58 0
-57 -58 0
3 18 26 41 49 55 57 58 0
-32 -42 0
-32 -46 0
-32 -48 0
-32 -59 0
-42 -46 0
-42 -48 0
-42 -59 0
-46 -48 0
-46 -59 0
-48 -59 0
32 42 46 48 59 0
-4 -27 0
-4 -30 0
-4 -38 0
-4 -56 0
-4 -60 0
-27 -30 0
-27 -38 0
-27 -56 0
-27 -60 0
-30 -38 0
-30 -56 0
-30 -60 0
-38 -56 0
-38 -60 0
-56 -60 0
4 27 30 38 56 60 0
-37 -52 0
-37 -57 0
-52 -57 0
37 52 57 0
-5 -58 0
-5 -60 0
-58 -60 0
5 58 60 0
-19 -33 0
-19 -50 0
-19 -59 0
-33 -50 0
-33 -59 0
-50 -59 0
19 33 50 59 0